
  32    1
  10

   0   0   6 2 3 4 7 9 20 
   3   1   7 19 15 12 10 8 6 5 
   3   5   9 31 30 29 28 27 23 16 13 11 
   2   4   8 30 27 24 23 18 17 14 13 
   8   7   8 29 28 27 25 24 23 22 13 
   6   5   5 27 23 17 16 11 
   3   5   7 28 27 26 25 23 22 21 
   3   9   3 27 23 11 
   4   6   5 26 25 24 22 18 
   7   5   3 23 22 13 
   4   6   4 25 24 22 21 
   3   7   3 24 23 22 
  10   4   2 26 21 
   9   3   2 28 25 
   4  10   2 24 23 
   8   7   1 22 
  10   5   1 21 
   7   6   1 21 
   1   4   1 22 
   7   9   1 26 
   9  10   1 32
   5   9   1 32
   3   7   1 32
   9   4   1 32
   6   3   1 32
   1   8   1 32
   2   7   1 32
   9   7   1 32
   1   4   1 32
  10   8   1 32
  10   5   1 32
   0   0   0 
